(set-info :smt-lib-version 2.6)
(set-logic QF_UF)
(set-info :source |
Generated by: David Deharbe, CLEARSY
Generated on: 2019-09-09
Generator: bxml;pog;pog2smt (Atelier B)
Application: B-method
Target solver: CVC4, Z3
|)
(set-info :license "https://creativecommons.org/licenses/by-nc/4.0/")
(set-info :category "industrial")
(set-info :status unknown)
; Prelude
(declare-sort U 0)
(declare-fun |*i| (U U) U)
(declare-fun |+i| (U U) U)
(declare-fun |-i| (U U) U)
(declare-fun idiv (U U) U)
(declare-fun |*r| (U U) U)
(declare-fun |+r| (U U) U)
(declare-fun |-r| (U U) U)
(declare-fun rdiv (U U) U)
(declare-fun modulo (U U) U)
(declare-fun |<i| (U U) Bool)
(declare-fun |<=i| (U U) Bool)
(declare-fun |>i| (U U) Bool)
(declare-fun |>=i| (U U) Bool)
(declare-fun |<r| (U U) Bool)
(declare-fun |<=r| (U U) Bool)
(declare-fun |>r| (U U) Bool)
(declare-fun |>=r| (U U) Bool)
(declare-fun iuminus (U) U)
(declare-fun ruminus (U) U)
(declare-fun TRUE () U)
(declare-fun FALSE () U)
(assert (not (= TRUE FALSE)))
(declare-fun empty () U)
(declare-fun bool (Bool) U)
(declare-fun BOOL () U)
(declare-fun INT () U)
(declare-fun INTEGER () U)
(declare-fun NAT () U)
(declare-fun NAT1 () U)
(declare-fun NATURAL () U)
(declare-fun NATURAL1 () U)
(declare-fun FLOAT () U)
(declare-fun MaxInt () U)
(declare-fun MinInt () U)
(declare-fun |STRING| () U)
(declare-fun REAL () U)
(declare-fun set_prod (U U) U)
(declare-fun set_diff (U U) U)
(declare-fun mapplet (U U) U)
(declare-fun |**i| (U U) U)
(declare-fun |**r| (U U) U)
(declare-fun |+->| (U U) U)
(declare-fun |+->>| (U U) U)
(declare-fun |-->| (U U) U)
(declare-fun |-->>| (U U) U)
(declare-fun |<->| (U U) U)
(declare-fun |>+>| (U U) U)
(declare-fun |>->| (U U) U)
(declare-fun |>+>>| (U U) U)
(declare-fun |>->>| (U U) U)
(declare-fun |->| (U U) U)
(declare-fun interval (U U) U)
(declare-fun composition (U U) U)
(declare-fun binary_inter (U U) U)
(declare-fun restriction_head (U U) U)
(declare-fun semicolon (U U) U)
(declare-fun |<+| (U U) U)
(declare-fun |<-| (U U) U)
(declare-fun domain_subtraction (U U) U)
(declare-fun domain_restriction (U U) U)
(declare-fun |><| (U U) U)
(declare-fun parallel_product (U U) U)
(declare-fun binary_union (U U) U)
(declare-fun restriction_tail (U U) U)
(declare-fun concatenate (U U) U)
(declare-fun range_restriction (U U) U)
(declare-fun range_subtraction (U U) U)
(declare-fun image (U U) U)
(declare-fun apply (U U) U)
(declare-fun prj1 (U U) U)
(declare-fun prj2 (U U) U)
(declare-fun iterate (U U) U)
(declare-fun |const| (U U) U)
(declare-fun rank (U U) U)
(declare-fun father (U U) U)
(declare-fun subtree (U U) U)
(declare-fun arity (U U) U)
(declare-fun |+f| (U U) U)
(declare-fun |-f| (U U) U)
(declare-fun |*f| (U U) U)
(declare-fun |fdiv| (U U) U)
(declare-fun tbin (U U U) U)
(declare-fun son (U U U) U)
(declare-fun mem (U U) Bool)
(declare-fun subset (U U) Bool)
(declare-fun strict_subset (U U) Bool)
(declare-fun |<=f| (U U) Bool)
(declare-fun |<f| (U U) Bool)
(declare-fun |>=f| (U U) Bool)
(declare-fun |>f| (U U) Bool)
(declare-fun imax (U) U)
(declare-fun imin (U) U)
(declare-fun rmax (U) U)
(declare-fun rmin (U) U)
(declare-fun card (U) U)
(declare-fun dom (U) U)
(declare-fun ran (U) U)
(declare-fun POW (U) U)
(declare-fun POW1 (U) U)
(declare-fun FIN (U) U)
(declare-fun FIN1 (U) U)
(declare-fun union (U) U)
(declare-fun inter (U) U)
(declare-fun seq (U) U)
(declare-fun seq1 (U) U)
(declare-fun iseq (U) U)
(declare-fun iseq1 (U) U)
(declare-fun inverse (U) U)
(declare-fun size (U) U)
(declare-fun perm (U) U)
(declare-fun first (U) U)
(declare-fun last (U) U)
(declare-fun id (U) U)
(declare-fun closure (U) U)
(declare-fun closure1 (U) U)
(declare-fun tail (U) U)
(declare-fun front (U) U)
(declare-fun reverse (U) U)
(declare-fun rev (U) U)
(declare-fun conc (U) U)
(declare-fun succ (U) U)
(declare-fun pred (U) U)
(declare-fun rel (U) U)
(declare-fun fnc (U) U)
(declare-fun real (U) U)
(declare-fun floor (U) U)
(declare-fun ceiling (U) U)
(declare-fun tree (U) U)
(declare-fun btree (U) U)
(declare-fun top (U) U)
(declare-fun sons (U) U)
(declare-fun prefix (U) U)
(declare-fun postfix (U) U)
(declare-fun sizet (U) U)
(declare-fun mirror (U) U)
(declare-fun left (U) U)
(declare-fun right (U) U)
(declare-fun infix (U) U)
(declare-fun ubin (U) U)
(declare-fun SEQ (U) U)
(declare-fun SET (U) U)
; Opaque formulas
(declare-fun e0 () U)
(declare-fun g_s0_1 () U)
(declare-fun g_s1_2 () U)
(declare-fun g_s10_11 () U)
(declare-fun g_s100_84 () U)
(declare-fun g_s103_85 () U)
(declare-fun g_s11_12 () U)
(declare-fun g_s12_13 () U)
(declare-fun g_s13_14 () U)
(declare-fun g_s14_15 () U)
(declare-fun g_s15_16 () U)
(declare-fun g_s16_17 () U)
(declare-fun g_s17_18 () U)
(declare-fun g_s18_19 () U)
(declare-fun g_s19_20 () U)
(declare-fun g_s2_3 () U)
(declare-fun g_s20_21 () U)
(declare-fun g_s21_22 () U)
(declare-fun g_s22_23 () U)
(declare-fun g_s23_24 () U)
(declare-fun g_s24_25 () U)
(declare-fun g_s25_26 () U)
(declare-fun g_s26_27 () U)
(declare-fun g_s27_28 () U)
(declare-fun g_s28_29 () U)
(declare-fun g_s29_30 () U)
(declare-fun g_s3_4 () U)
(declare-fun g_s30_31 () U)
(declare-fun g_s31_32 () U)
(declare-fun g_s32_33 () U)
(declare-fun g_s33_34 () U)
(declare-fun g_s34_35 () U)
(declare-fun g_s35_36 () U)
(declare-fun g_s36_37 () U)
(declare-fun g_s37_38 () U)
(declare-fun g_s38_39 () U)
(declare-fun g_s39_40 () U)
(declare-fun g_s4_5 () U)
(declare-fun g_s40_41 () U)
(declare-fun g_s41_42 () U)
(declare-fun g_s42_43 () U)
(declare-fun g_s43_44 () U)
(declare-fun g_s44_45 () U)
(declare-fun g_s45_46 () U)
(declare-fun g_s46_47 () U)
(declare-fun g_s47_48 () U)
(declare-fun g_s48_49 () U)
(declare-fun g_s49_50 () U)
(declare-fun g_s5_6 () U)
(declare-fun g_s50_51 () U)
(declare-fun g_s51_52 () U)
(declare-fun g_s52_53 () U)
(declare-fun g_s53_54 () U)
(declare-fun g_s54_55 () U)
(declare-fun g_s55_56 () U)
(declare-fun g_s56_57 () U)
(declare-fun g_s57_58 () U)
(declare-fun g_s58_59 () U)
(declare-fun g_s59_60 () U)
(declare-fun g_s6_7 () U)
(declare-fun g_s60_61 () U)
(declare-fun g_s61_62 () U)
(declare-fun g_s62_63 () U)
(declare-fun g_s63_64 () U)
(declare-fun g_s64_65 () U)
(declare-fun g_s65_66 () U)
(declare-fun g_s66_67 () U)
(declare-fun g_s67_68 () U)
(declare-fun g_s68_69 () U)
(declare-fun g_s69_70 () U)
(declare-fun g_s7_8 () U)
(declare-fun g_s70_71 () U)
(declare-fun g_s71_72 () U)
(declare-fun g_s72_73 () U)
(declare-fun g_s73_74 () U)
(declare-fun g_s74_75 () U)
(declare-fun g_s75_76 () U)
(declare-fun g_s79_77 () U)
(declare-fun g_s8_9 () U)
(declare-fun g_s82_78 () U)
(declare-fun g_s85_79 () U)
(declare-fun g_s88_80 () U)
(declare-fun g_s9_10 () U)
(declare-fun g_s91_81 () U)
(declare-fun g_s94_82 () U)
(declare-fun g_s97_83 () U)
; Defines
(define-fun |def_B definitions| () Bool (and (= NAT (interval e0 MaxInt)) (= INT (interval MinInt MaxInt))))
(define-fun |def_ctx| () Bool (and (not (= g_s0_1 empty)) (not (= g_s1_2 empty)) (not (= g_s2_3 empty)) (not (= g_s3_4 empty)) (not (= g_s4_5 empty)) (not (= g_s5_6 empty)) (not (= g_s6_7 empty)) (not (= g_s7_8 empty)) (not (= g_s8_9 empty)) (not (= g_s9_10 empty)) (not (= g_s10_11 empty)) (not (= g_s11_12 empty)) (= g_s12_13 (SET (mapplet g_s15_16 (mapplet g_s14_15 g_s13_14)))) (subset g_s16_17 g_s0_1) (mem g_s17_18 g_s0_1) (not (mem g_s17_18 g_s16_17)) (mem g_s18_19 (|+->| NAT g_s0_1)) (mem g_s18_19 (perm g_s16_17)) (subset g_s19_20 g_s1_2) (mem g_s20_21 g_s1_2) (not (mem g_s20_21 g_s19_20)) (mem g_s21_22 (|+->| NAT g_s1_2)) (mem g_s21_22 (perm g_s19_20)) (subset g_s22_23 g_s2_3) (mem g_s23_24 g_s2_3) (not (mem g_s23_24 g_s22_23)) (mem g_s24_25 (|+->| NAT g_s2_3)) (mem g_s24_25 (perm g_s22_23)) (subset g_s25_26 g_s3_4) (mem g_s26_27 g_s3_4) (not (mem g_s26_27 g_s25_26)) (mem g_s27_28 (|+->| NAT g_s3_4)) (mem g_s27_28 (perm g_s25_26)) (subset g_s28_29 g_s4_5) (mem g_s29_30 g_s4_5) (not (mem g_s29_30 g_s28_29)) (mem g_s30_31 (|+->| NAT g_s4_5)) (mem g_s30_31 (perm g_s28_29)) (subset g_s31_32 g_s5_6) (mem g_s32_33 g_s5_6) (not (mem g_s32_33 g_s31_32)) (mem g_s33_34 (|+->| NAT g_s5_6)) (mem g_s33_34 (perm g_s31_32)) (subset g_s34_35 g_s5_6) (subset g_s35_36 g_s34_35) (subset g_s35_36 g_s5_6) (subset g_s35_36 g_s31_32) (mem g_s32_33 g_s34_35) (not (mem g_s32_33 g_s35_36)) (mem g_s36_37 (|+->| NAT g_s34_35)) (mem g_s36_37 (perm g_s35_36)) (subset g_s37_38 g_s6_7) (mem g_s38_39 g_s6_7) (not (mem g_s38_39 g_s37_38)) (mem g_s39_40 (|+->| NAT g_s6_7)) (mem g_s39_40 (perm g_s37_38)) (subset g_s40_41 g_s7_8) (mem g_s41_42 g_s7_8) (not (mem g_s41_42 g_s40_41)) (mem g_s42_43 (|+->| NAT g_s7_8)) (mem g_s42_43 (perm g_s40_41)) (subset g_s43_44 g_s8_9) (mem g_s44_45 g_s8_9) (not (mem g_s44_45 g_s43_44)) (mem g_s45_46 (|+->| NAT g_s8_9)) (mem g_s45_46 (perm g_s43_44)) (subset g_s46_47 g_s8_9) (subset g_s47_48 g_s46_47) (subset g_s47_48 g_s8_9) (subset g_s47_48 g_s43_44) (mem g_s44_45 g_s46_47) (not (mem g_s44_45 g_s47_48)) (mem g_s48_49 (|+->| NAT g_s46_47)) (mem g_s48_49 (perm g_s47_48)) (subset g_s49_50 g_s9_10) (mem g_s50_51 g_s9_10) (not (mem g_s50_51 g_s49_50)) (mem g_s51_52 (|+->| NAT g_s9_10)) (mem g_s51_52 (perm g_s49_50)) (subset g_s52_53 g_s10_11) (mem g_s53_54 g_s10_11) (not (mem g_s53_54 g_s52_53)) (mem g_s54_55 (|+->| NAT g_s10_11)) (mem g_s54_55 (perm g_s52_53)) (subset g_s55_56 g_s11_12) (mem g_s56_57 g_s11_12) (not (mem g_s56_57 g_s55_56)) (mem g_s57_58 (|+->| NAT g_s11_12)) (mem g_s57_58 (perm g_s55_56))))
(define-fun |def_seext| () Bool true)
(define-fun |def_lprp| () Bool true)
(define-fun |def_inprp| () Bool true)
(define-fun |def_inext| () Bool true)
(define-fun |def_inv| () Bool (and (subset g_s58_59 g_s16_17) (subset g_s59_60 g_s16_17) (= (binary_inter g_s59_60 g_s58_59) empty) (subset g_s60_61 g_s19_20) (subset g_s61_62 g_s19_20) (= (binary_inter g_s61_62 g_s60_61) empty) (subset g_s62_63 g_s28_29) (subset g_s63_64 g_s28_29) (= (binary_inter g_s63_64 g_s62_63) empty) (subset g_s64_65 g_s43_44) (subset g_s65_66 g_s43_44) (= (binary_inter g_s65_66 g_s64_65) empty) (subset g_s66_67 g_s40_41) (subset g_s67_68 g_s40_41) (= (binary_inter g_s67_68 g_s66_67) empty) (subset g_s68_69 g_s52_53) (subset g_s69_70 g_s52_53) (= (binary_inter g_s69_70 g_s68_69) empty) (subset g_s70_71 g_s55_56) (subset g_s71_72 g_s55_56) (= (binary_inter g_s71_72 g_s70_71) empty) (subset g_s72_73 g_s22_23) (subset g_s73_74 g_s22_23) (= (binary_inter g_s73_74 g_s72_73) empty) (subset g_s74_75 g_s31_32) (subset g_s75_76 g_s31_32) (= (binary_inter g_s75_76 g_s74_75) empty)))
(define-fun |def_ass| () Bool true)
(define-fun |def_cst| () Bool true)
(define-fun |def_sets| () Bool true)
; PO group 0 
(push 1)
(assert |def_B definitions|)
(assert |def_ctx|)
(assert |def_cst|)
(assert |def_lprp|)
(assert |def_inprp|)
(assert |def_inext|)
(assert |def_seext|)
(assert |def_inv|)
(assert |def_ass|)
; PO 1 in group 0
(push 1)
(assert (not (subset empty g_s16_17)))
(check-sat)
(pop 1)
; PO 2 in group 0
(push 1)
(assert (not (subset g_s16_17 g_s16_17)))
(set-info :status unknown)
(check-sat)
(pop 1)
; PO 3 in group 0
(push 1)
(assert (not (= (binary_inter empty g_s16_17) empty)))
(set-info :status unknown)
(check-sat)
(pop 1)
(pop 1)
; PO group 1 
(push 1)
(assert |def_B definitions|)
(assert |def_ctx|)
(assert |def_cst|)
(assert |def_lprp|)
(assert |def_inprp|)
(assert |def_inext|)
(assert |def_seext|)
(assert |def_inv|)
(assert |def_ass|)
(assert (not (= g_s58_59 empty)))
(define-fun lh_1 () Bool (mem g_s79_77 g_s0_1))
(define-fun lh_2 () Bool (mem g_s79_77 g_s16_17))
(define-fun lh_3 () Bool (mem g_s79_77 g_s58_59))
; PO 1 in group 1
(push 1)
(assert (not (=> (and lh_1 lh_2 lh_3) (subset (set_diff g_s58_59 (SET g_s79_77)) g_s16_17))))
(set-info :status unknown)
(check-sat)
(pop 1)
; PO 2 in group 1
(push 1)
(assert (not (=> (and lh_1 lh_2 lh_3) (subset (binary_union g_s59_60 (SET g_s79_77)) g_s16_17))))
(set-info :status unknown)
(check-sat)
(pop 1)
; PO 3 in group 1
(push 1)
(assert (not (=> (and lh_1 lh_2 lh_3) (= (binary_inter (binary_union g_s59_60 (SET g_s79_77)) (set_diff g_s58_59 (SET g_s79_77))) empty))))
(set-info :status unknown)
(check-sat)
(pop 1)
(pop 1)
; PO group 2 
(push 1)
(assert |def_B definitions|)
(assert |def_ctx|)
(assert |def_cst|)
(assert |def_lprp|)
(assert |def_inprp|)
(assert |def_inext|)
(assert |def_seext|)
(assert |def_inv|)
(assert |def_ass|)
; PO 1 in group 2
(push 1)
(assert (not (subset empty g_s19_20)))
(set-info :status unknown)
(check-sat)
(pop 1)
; PO 2 in group 2
(push 1)
(assert (not (subset g_s19_20 g_s19_20)))
(set-info :status unknown)
(check-sat)
(pop 1)
; PO 3 in group 2
(push 1)
(assert (not (= (binary_inter empty g_s19_20) empty)))
(set-info :status unknown)
(check-sat)
(pop 1)
(pop 1)
; PO group 3 
(push 1)
(assert |def_B definitions|)
(assert |def_ctx|)
(assert |def_cst|)
(assert |def_lprp|)
(assert |def_inprp|)
(assert |def_inext|)
(assert |def_seext|)
(assert |def_inv|)
(assert |def_ass|)
(assert (not (= g_s60_61 empty)))
(define-fun lh_1 () Bool (mem g_s82_78 g_s1_2))
(define-fun lh_2 () Bool (mem g_s82_78 g_s19_20))
(define-fun lh_3 () Bool (mem g_s82_78 g_s60_61))
; PO 1 in group 3
(push 1)
(assert (not (=> (and lh_1 lh_2 lh_3) (subset (set_diff g_s60_61 (SET g_s82_78)) g_s19_20))))
(set-info :status unknown)
(check-sat)
(pop 1)
; PO 2 in group 3
(push 1)
(assert (not (=> (and lh_1 lh_2 lh_3) (subset (binary_union g_s61_62 (SET g_s82_78)) g_s19_20))))
(set-info :status unknown)
(check-sat)
(pop 1)
; PO 3 in group 3
(push 1)
(assert (not (=> (and lh_1 lh_2 lh_3) (= (binary_inter (binary_union g_s61_62 (SET g_s82_78)) (set_diff g_s60_61 (SET g_s82_78))) empty))))
(set-info :status unknown)
(check-sat)
(pop 1)
(pop 1)
; PO group 4 
(push 1)
(assert |def_B definitions|)
(assert |def_ctx|)
(assert |def_cst|)
(assert |def_lprp|)
(assert |def_inprp|)
(assert |def_inext|)
(assert |def_seext|)
(assert |def_inv|)
(assert |def_ass|)
; PO 1 in group 4
(push 1)
(assert (not (subset empty g_s28_29)))
(set-info :status unknown)
(check-sat)
(pop 1)
; PO 2 in group 4
(push 1)
(assert (not (subset g_s28_29 g_s28_29)))
(set-info :status unknown)
(check-sat)
(pop 1)
; PO 3 in group 4
(push 1)
(assert (not (= (binary_inter empty g_s28_29) empty)))
(set-info :status unknown)
(check-sat)
(pop 1)
(pop 1)
; PO group 5 
(push 1)
(assert |def_B definitions|)
(assert |def_ctx|)
(assert |def_cst|)
(assert |def_lprp|)
(assert |def_inprp|)
(assert |def_inext|)
(assert |def_seext|)
(assert |def_inv|)
(assert |def_ass|)
(assert (not (= g_s62_63 empty)))
(define-fun lh_1 () Bool (mem g_s85_79 g_s4_5))
(define-fun lh_2 () Bool (mem g_s85_79 g_s28_29))
(define-fun lh_3 () Bool (mem g_s85_79 g_s62_63))
; PO 1 in group 5
(push 1)
(assert (not (=> (and lh_1 lh_2 lh_3) (subset (set_diff g_s62_63 (SET g_s85_79)) g_s28_29))))
(set-info :status unknown)
(check-sat)
(pop 1)
; PO 2 in group 5
(push 1)
(assert (not (=> (and lh_1 lh_2 lh_3) (subset (binary_union g_s63_64 (SET g_s85_79)) g_s28_29))))
(set-info :status unknown)
(check-sat)
(pop 1)
; PO 3 in group 5
(push 1)
(assert (not (=> (and lh_1 lh_2 lh_3) (= (binary_inter (binary_union g_s63_64 (SET g_s85_79)) (set_diff g_s62_63 (SET g_s85_79))) empty))))
(set-info :status unknown)
(check-sat)
(pop 1)
(pop 1)
; PO group 6 
(push 1)
(assert |def_B definitions|)
(assert |def_ctx|)
(assert |def_cst|)
(assert |def_lprp|)
(assert |def_inprp|)
(assert |def_inext|)
(assert |def_seext|)
(assert |def_inv|)
(assert |def_ass|)
; PO 1 in group 6
(push 1)
(assert (not (subset empty g_s43_44)))
(set-info :status unknown)
(check-sat)
(pop 1)
; PO 2 in group 6
(push 1)
(assert (not (subset g_s43_44 g_s43_44)))
(set-info :status unknown)
(check-sat)
(pop 1)
; PO 3 in group 6
(push 1)
(assert (not (= (binary_inter empty g_s43_44) empty)))
(set-info :status unknown)
(check-sat)
(pop 1)
(pop 1)
; PO group 7 
(push 1)
(assert |def_B definitions|)
(assert |def_ctx|)
(assert |def_cst|)
(assert |def_lprp|)
(assert |def_inprp|)
(assert |def_inext|)
(assert |def_seext|)
(assert |def_inv|)
(assert |def_ass|)
(assert (not (= g_s64_65 empty)))
(define-fun lh_1 () Bool (mem g_s88_80 g_s8_9))
(define-fun lh_2 () Bool (mem g_s88_80 g_s43_44))
(define-fun lh_3 () Bool (mem g_s88_80 g_s64_65))
; PO 1 in group 7
(push 1)
(assert (not (=> (and lh_1 lh_2 lh_3) (subset (set_diff g_s64_65 (SET g_s88_80)) g_s43_44))))
(set-info :status unknown)
(check-sat)
(pop 1)
; PO 2 in group 7
(push 1)
(assert (not (=> (and lh_1 lh_2 lh_3) (subset (binary_union g_s65_66 (SET g_s88_80)) g_s43_44))))
(set-info :status unknown)
(check-sat)
(pop 1)
; PO 3 in group 7
(push 1)
(assert (not (=> (and lh_1 lh_2 lh_3) (= (binary_inter (binary_union g_s65_66 (SET g_s88_80)) (set_diff g_s64_65 (SET g_s88_80))) empty))))
(set-info :status unknown)
(check-sat)
(pop 1)
(pop 1)
; PO group 8 
(push 1)
(assert |def_B definitions|)
(assert |def_ctx|)
(assert |def_cst|)
(assert |def_lprp|)
(assert |def_inprp|)
(assert |def_inext|)
(assert |def_seext|)
(assert |def_inv|)
(assert |def_ass|)
; PO 1 in group 8
(push 1)
(assert (not (subset empty g_s40_41)))
(set-info :status unknown)
(check-sat)
(pop 1)
; PO 2 in group 8
(push 1)
(assert (not (subset g_s40_41 g_s40_41)))
(set-info :status unknown)
(check-sat)
(pop 1)
; PO 3 in group 8
(push 1)
(assert (not (= (binary_inter empty g_s40_41) empty)))
(set-info :status unknown)
(check-sat)
(pop 1)
(pop 1)
; PO group 9 
(push 1)
(assert |def_B definitions|)
(assert |def_ctx|)
(assert |def_cst|)
(assert |def_lprp|)
(assert |def_inprp|)
(assert |def_inext|)
(assert |def_seext|)
(assert |def_inv|)
(assert |def_ass|)
(assert (not (= g_s66_67 empty)))
(define-fun lh_1 () Bool (mem g_s91_81 g_s7_8))
(define-fun lh_2 () Bool (mem g_s91_81 g_s40_41))
(define-fun lh_3 () Bool (mem g_s91_81 g_s66_67))
; PO 1 in group 9
(push 1)
(assert (not (=> (and lh_1 lh_2 lh_3) (subset (set_diff g_s66_67 (SET g_s91_81)) g_s40_41))))
(set-info :status unknown)
(check-sat)
(pop 1)
; PO 2 in group 9
(push 1)
(assert (not (=> (and lh_1 lh_2 lh_3) (subset (binary_union g_s67_68 (SET g_s91_81)) g_s40_41))))
(set-info :status unknown)
(check-sat)
(pop 1)
; PO 3 in group 9
(push 1)
(assert (not (=> (and lh_1 lh_2 lh_3) (= (binary_inter (binary_union g_s67_68 (SET g_s91_81)) (set_diff g_s66_67 (SET g_s91_81))) empty))))
(set-info :status unknown)
(check-sat)
(pop 1)
(pop 1)
; PO group 10 
(push 1)
(assert |def_B definitions|)
(assert |def_ctx|)
(assert |def_cst|)
(assert |def_lprp|)
(assert |def_inprp|)
(assert |def_inext|)
(assert |def_seext|)
(assert |def_inv|)
(assert |def_ass|)
; PO 1 in group 10
(push 1)
(assert (not (subset empty g_s52_53)))
(set-info :status unknown)
(check-sat)
(pop 1)
; PO 2 in group 10
(push 1)
(assert (not (subset g_s52_53 g_s52_53)))
(set-info :status unknown)
(check-sat)
(pop 1)
; PO 3 in group 10
(push 1)
(assert (not (= (binary_inter empty g_s52_53) empty)))
(set-info :status unknown)
(check-sat)
(pop 1)
(pop 1)
; PO group 11 
(push 1)
(assert |def_B definitions|)
(assert |def_ctx|)
(assert |def_cst|)
(assert |def_lprp|)
(assert |def_inprp|)
(assert |def_inext|)
(assert |def_seext|)
(assert |def_inv|)
(assert |def_ass|)
(assert (not (= g_s68_69 empty)))
(define-fun lh_1 () Bool (mem g_s94_82 g_s10_11))
(define-fun lh_2 () Bool (mem g_s94_82 g_s52_53))
(define-fun lh_3 () Bool (mem g_s94_82 g_s68_69))
; PO 1 in group 11
(push 1)
(assert (not (=> (and lh_1 lh_2 lh_3) (subset (set_diff g_s68_69 (SET g_s94_82)) g_s52_53))))
(set-info :status unknown)
(check-sat)
(pop 1)
; PO 2 in group 11
(push 1)
(assert (not (=> (and lh_1 lh_2 lh_3) (subset (binary_union g_s69_70 (SET g_s94_82)) g_s52_53))))
(set-info :status unknown)
(check-sat)
(pop 1)
; PO 3 in group 11
(push 1)
(assert (not (=> (and lh_1 lh_2 lh_3) (= (binary_inter (binary_union g_s69_70 (SET g_s94_82)) (set_diff g_s68_69 (SET g_s94_82))) empty))))
(set-info :status unknown)
(check-sat)
(pop 1)
(pop 1)
; PO group 12 
(push 1)
(assert |def_B definitions|)
(assert |def_ctx|)
(assert |def_cst|)
(assert |def_lprp|)
(assert |def_inprp|)
(assert |def_inext|)
(assert |def_seext|)
(assert |def_inv|)
(assert |def_ass|)
; PO 1 in group 12
(push 1)
(assert (not (subset empty g_s55_56)))
(set-info :status unknown)
(check-sat)
(pop 1)
; PO 2 in group 12
(push 1)
(assert (not (subset g_s55_56 g_s55_56)))
(set-info :status unknown)
(check-sat)
(pop 1)
; PO 3 in group 12
(push 1)
(assert (not (= (binary_inter empty g_s55_56) empty)))
(set-info :status unknown)
(check-sat)
(pop 1)
(pop 1)
; PO group 13 
(push 1)
(assert |def_B definitions|)
(assert |def_ctx|)
(assert |def_cst|)
(assert |def_lprp|)
(assert |def_inprp|)
(assert |def_inext|)
(assert |def_seext|)
(assert |def_inv|)
(assert |def_ass|)
(assert (not (= g_s70_71 empty)))
(define-fun lh_1 () Bool (mem g_s97_83 g_s11_12))
(define-fun lh_2 () Bool (mem g_s97_83 g_s55_56))
(define-fun lh_3 () Bool (mem g_s97_83 g_s70_71))
; PO 1 in group 13
(push 1)
(assert (not (=> (and lh_1 lh_2 lh_3) (subset (set_diff g_s70_71 (SET g_s97_83)) g_s55_56))))
(set-info :status unknown)
(check-sat)
(pop 1)
; PO 2 in group 13
(push 1)
(assert (not (=> (and lh_1 lh_2 lh_3) (subset (binary_union g_s71_72 (SET g_s97_83)) g_s55_56))))
(set-info :status unknown)
(check-sat)
(pop 1)
; PO 3 in group 13
(push 1)
(assert (not (=> (and lh_1 lh_2 lh_3) (= (binary_inter (binary_union g_s71_72 (SET g_s97_83)) (set_diff g_s70_71 (SET g_s97_83))) empty))))
(set-info :status unknown)
(check-sat)
(pop 1)
(pop 1)
; PO group 14 
(push 1)
(assert |def_B definitions|)
(assert |def_ctx|)
(assert |def_cst|)
(assert |def_lprp|)
(assert |def_inprp|)
(assert |def_inext|)
(assert |def_seext|)
(assert |def_inv|)
(assert |def_ass|)
; PO 1 in group 14
(push 1)
(assert (not (subset empty g_s22_23)))
(set-info :status unknown)
(check-sat)
(pop 1)
; PO 2 in group 14
(push 1)
(assert (not (subset g_s22_23 g_s22_23)))
(set-info :status unknown)
(check-sat)
(pop 1)
; PO 3 in group 14
(push 1)
(assert (not (= (binary_inter empty g_s22_23) empty)))
(set-info :status unknown)
(check-sat)
(pop 1)
(pop 1)
; PO group 15 
(push 1)
(assert |def_B definitions|)
(assert |def_ctx|)
(assert |def_cst|)
(assert |def_lprp|)
(assert |def_inprp|)
(assert |def_inext|)
(assert |def_seext|)
(assert |def_inv|)
(assert |def_ass|)
(assert (not (= g_s72_73 empty)))
(define-fun lh_1 () Bool (mem g_s100_84 g_s2_3))
(define-fun lh_2 () Bool (mem g_s100_84 g_s22_23))
(define-fun lh_3 () Bool (mem g_s100_84 g_s72_73))
; PO 1 in group 15
(push 1)
(assert (not (=> (and lh_1 lh_2 lh_3) (subset (set_diff g_s72_73 (SET g_s100_84)) g_s22_23))))
(set-info :status unknown)
(check-sat)
(pop 1)
; PO 2 in group 15
(push 1)
(assert (not (=> (and lh_1 lh_2 lh_3) (subset (binary_union g_s73_74 (SET g_s100_84)) g_s22_23))))
(set-info :status unknown)
(check-sat)
(pop 1)
; PO 3 in group 15
(push 1)
(assert (not (=> (and lh_1 lh_2 lh_3) (= (binary_inter (binary_union g_s73_74 (SET g_s100_84)) (set_diff g_s72_73 (SET g_s100_84))) empty))))
(set-info :status unknown)
(check-sat)
(pop 1)
(pop 1)
; PO group 16 
(push 1)
(assert |def_B definitions|)
(assert |def_ctx|)
(assert |def_cst|)
(assert |def_lprp|)
(assert |def_inprp|)
(assert |def_inext|)
(assert |def_seext|)
(assert |def_inv|)
(assert |def_ass|)
; PO 1 in group 16
(push 1)
(assert (not (subset empty g_s31_32)))
(set-info :status unknown)
(check-sat)
(pop 1)
; PO 2 in group 16
(push 1)
(assert (not (subset g_s31_32 g_s31_32)))
(set-info :status unknown)
(check-sat)
(pop 1)
; PO 3 in group 16
(push 1)
(assert (not (= (binary_inter empty g_s31_32) empty)))
(set-info :status unknown)
(check-sat)
(pop 1)
(pop 1)
; PO group 17 
(push 1)
(assert |def_B definitions|)
(assert |def_ctx|)
(assert |def_cst|)
(assert |def_lprp|)
(assert |def_inprp|)
(assert |def_inext|)
(assert |def_seext|)
(assert |def_inv|)
(assert |def_ass|)
(assert (not (= g_s74_75 empty)))
(define-fun lh_1 () Bool (mem g_s103_85 g_s5_6))
(define-fun lh_2 () Bool (mem g_s103_85 g_s31_32))
(define-fun lh_3 () Bool (mem g_s103_85 g_s74_75))
; PO 1 in group 17
(push 1)
(assert (not (=> (and lh_1 lh_2 lh_3) (subset (set_diff g_s74_75 (SET g_s103_85)) g_s31_32))))
(set-info :status unknown)
(check-sat)
(pop 1)
; PO 2 in group 17
(push 1)
(assert (not (=> (and lh_1 lh_2 lh_3) (subset (binary_union g_s75_76 (SET g_s103_85)) g_s31_32))))
(set-info :status unknown)
(check-sat)
(pop 1)
; PO 3 in group 17
(push 1)
(assert (not (=> (and lh_1 lh_2 lh_3) (= (binary_inter (binary_union g_s75_76 (SET g_s103_85)) (set_diff g_s74_75 (SET g_s103_85))) empty))))
(set-info :status unknown)
(check-sat)
(pop 1)
(pop 1)
(exit)